c   #vars: 76   #clauses: 343   #literals: 956
c 
p cnf 76 343
-1 -2 0
42 43 75 76 0
40 41 58 59 0
-3 -4 0
14 15 33 -62 0
-6 -7 0
24 25 75 76 0
38 39 75 76 0
-8 -9 0
-10 -11 0
-12 -13 0
-14 -15 0
23 62 63 -73 0
-17 -18 0
-19 -20 0
-21 -22 0
-24 -25 0
-26 -27 0
-29 -30 0
-31 -32 0
-34 -35 0
-36 -37 0
42 43 58 59 0
17 18 -32 55 0
-38 -39 0
-40 -41 0
-42 -43 0
-44 -45 0
-46 -47 0
16 -38 58 59 0
-49 -50 0
-51 -52 0
-53 -54 0
1 2 -44 68 0
3 4 46 47 0
-56 -57 0
-58 -59 0
-60 -61 0
38 39 60 61 0
1 2 60 61 0
-6 33 62 63 0
-18 48 55 -69 0
-62 -63 0
-64 -65 0
51 52 58 59 0
44 45 69 70 0
6 7 75 76 0
-66 -67 0
5 49 50 -73 0
-4 19 20 28 0
-69 -70 0
12 13 69 70 0
-71 -72 0
21 22 62 63 0
-73 -74 0
1 2 36 37 0
-75 -76 0
28 69 70 -74 0
-1 -29 0
-2 -30 0
38 39 53 54 0
-1 -36 0
-2 -37 0
8 9 51 52 0
-1 -40 0
-2 -41 0
-1 -60 0
-2 -61 0
21 22 60 61 0
3 4 28 -74 0
-2 -68 0
23 -36 73 74 0
-1 -71 0
-2 -72 0
-10 -18 48 55 0
5 -29 49 50 0
-10 -32 48 55 0
-3 -28 0
-14 33 73 74 0
-3 -46 0
-4 -47 0
16 38 39 -66 0
10 11 53 54 0
-3 -69 0
-4 -70 0
-6 33 73 74 0
-3 -71 0
-4 -72 0
-6 14 15 33 0
-5 -30 0
6 7 33 -73 0
-5 -50 0
42 43 56 57 0
5 29 30 -73 0
19 20 28 -74 0
6 7 33 -62 0
-5 -74 0
16 -58 66 67 0
28 -70 73 74 0
-7 -33 0
31 32 -48 55 0
21 22 51 52 0
-6 -56 0
-7 -57 0
-6 -75 0
-7 -76 0
8 9 60 61 0
14 15 33 -73 0
19 20 36 37 0
-8 -40 0
-9 -41 0
-8 -49 0
-9 -50 0
10 11 48 -55 0
-8 -51 0
-9 -52 0
19 20 56 57 0
-8 -58 0
-9 -59 0
19 20 53 54 0
-8 -60 0
-9 -61 0
19 20 29 30 0
-8 -73 0
-9 -74 0
-10 -36 0
-11 -37 0
17 18 -48 55 0
-10 -42 0
-11 -43 0
5 -49 73 74 0
-11 -48 0
26 27 56 57 0
-10 -53 0
-11 -54 0
21 22 34 35 0
-10 -62 0
-11 -63 0
17 18 71 72 0
24 25 29 30 0
-12 -26 0
-13 -27 0
21 22 58 59 0
8 9 40 41 0
-12 -42 0
-13 -43 0
34 35 66 67 0
-12 -64 0
-13 -65 0
-12 -66 0
-13 -67 0
46 47 60 61 0
3 4 28 -70 0
-13 -68 0
1 2 71 72 0
-12 -69 0
-13 -70 0
-20 28 73 74 0
-15 -33 0
-14 -58 0
-15 -59 0
34 35 73 74 0
16 38 39 -58 0
-14 33 62 63 0
-14 -73 0
-15 -74 0
21 22 71 72 0
23 -36 62 63 0
-16 -39 0
23 36 37 -73 0
-16 -59 0
3 4 69 70 0
23 36 37 -62 0
-16 -67 0
8 9 49 50 0
-17 -40 0
-18 -41 0
17 18 42 43 0
-17 -42 0
-18 -43 0
44 45 64 65 0
-17 -44 0
-18 -45 0
10 11 48 -69 0
-17 -46 0
-18 -47 0
-20 28 69 70 0
-17 -55 0
1 2 -12 68 0
12 13 42 43 0
-17 -62 0
-18 -63 0
12 13 66 67 0
-17 -71 0
-18 -72 0
-19 -28 0
12 13 26 27 0
-19 -29 0
-20 -30 0
-32 48 55 -69 0
-19 -36 0
-20 -37 0
33 -62 73 74 0
-18 31 32 55 0
6 7 56 57 0
-19 -53 0
-20 -54 0
16 -38 66 67 0
-19 -56 0
-20 -57 0
-21 -34 0
-22 -35 0
17 18 40 41 0
3 4 71 72 0
-21 -46 0
-22 -47 0
10 11 42 43 0
-21 -51 0
-22 -52 0
-21 -58 0
-22 -59 0
49 50 69 70 0
-21 -60 0
-22 -61 0
8 9 73 74 0
-21 -62 0
-22 -63 0
12 13 64 65 0
-21 -71 0
-22 -72 0
-23 -37 0
-23 -63 0
-23 -74 0
24 25 26 27 0
-24 -26 0
-25 -27 0
48 -55 69 70 0
-24 -29 0
-25 -30 0
14 15 73 74 0
-24 -40 0
-25 -41 0
17 18 46 47 0
-24 -75 0
-25 -76 0
33 62 63 -73 0
-26 -56 0
-27 -57 0
1 2 40 41 0
-26 -64 0
-27 -65 0
-28 -69 0
-28 -73 0
17 18 44 45 0
-31 -55 0
-12 44 45 68 0
21 22 46 47 0
-31 -60 0
-32 -61 0
19 20 28 -70 0
-31 -64 0
-32 -65 0
51 52 62 63 0
-31 -71 0
-32 -72 0
34 35 71 72 0
5 29 30 -49 0
-4 28 73 74 0
-33 -63 0
10 11 36 37 0
16 58 59 -66 0
-33 -74 0
8 9 58 59 0
-34 -66 0
-35 -67 0
42 43 64 65 0
-34 -71 0
-35 -72 0
-34 -73 0
-35 -74 0
-36 -62 0
-37 -63 0
36 37 62 63 0
-38 -53 0
-39 -54 0
-4 28 69 70 0
-38 -58 0
-39 -59 0
-10 48 69 70 0
-38 -60 0
-39 -61 0
14 15 58 59 0
-38 -75 0
-39 -76 0
24 25 40 41 0
-40 -53 0
-41 -54 0
49 50 66 67 0
-40 -58 0
-41 -59 0
-42 -56 0
-43 -57 0
17 18 62 63 0
-42 -58 0
-43 -59 0
23 -62 73 74 0
-42 -64 0
-43 -65 0
1 2 29 30 0
-42 -75 0
-43 -76 0
31 32 64 65 0
-44 -64 0
-45 -65 0
31 32 60 61 0
3 4 -20 28 0
-45 -68 0
26 27 64 65 0
-44 -69 0
-45 -70 0
10 11 62 63 0
-44 -75 0
-45 -76 0
31 32 71 72 0
-46 -60 0
-47 -61 0
5 -29 73 74 0
-1 44 45 68 0
38 39 58 59 0
-1 12 13 68 0
6 7 -14 33 0
-48 -70 0
12 13 -44 68 0
44 45 75 76 0
-49 -66 0
-50 -67 0
-49 -69 0
-50 -70 0
40 41 53 54 0
-51 -58 0
-52 -59 0
-51 -62 0
-52 -63 0
